problems/csplib-prob001/CarSequencing-models/noch/O2/lingeling/model-random13-solution000001.eprime-solution
language ESSENCE' 1.0

letting car_Function1D be
        [8, 6, 5, 3, 3, 15, 6, 5, 7, 15, 11, 15, 6, 3, 6, 14, 3, 6, 4, 6, 6, 12, 11, 6, 15, 11, 9, 3, 6, 12, 3, 6, 5, 3,
         21, 16, 11, 6, 4, 6, 8, 11, 10, 3, 6, 20, 3, 15, 11, 8, 6, 16, 3, 3, 8, 16, 6, 5, 3, 17, 6, 15, 6, 2, 3, 6, 15,
         16, 3, 6, 3, 9, 8, 3, 6, 6, 3, 6, 4, 6, 20, 12, 11, 16, 5, 6, 7, 6, 6, 8, 3, 6, 6, 15, 3, 15, 6, 3, 6, 7, 21,
         15, 6, 3, 5, 21, 3, 6, 7, 15, 6, 8, 11, 3, 15, 6, 21, 10, 3, 5, 3, 8, 6, 3, 6, 11, 16, 6, 3, 15, 3, 8, 6, 6, 3,
         3, 6, 6, 15, 3, 13, 6, 5, 8, 19, 3, 6, 6, 16, 3, 3, 15, 21, 6, 3, 6, 3, 6, 8, 1, 6, 15, 16, 11, 11, 16, 6, 6,
         3, 6, 5, 8, 3, 6, 6, 3, 6, 3, 20, 12, 6, 6, 4, 6, 3, 6, 6, 3, 18, 6, 3, 15, 6, 3, 8, 6, 20, 3, 6,
         3; int(1..200)]
